p tw 104 266
0 1
0 2
0 3
0 16
0 41
0 99
1 2
1 3
1 36
1 42
1 53
1 79
1 101
2 3
2 90
2 93
2 95
3 26
3 27
4 5
4 84
4 85
4 86
4 87
5 61
6 7
6 17
6 59
6 80
6 89
7 46
8 9
8 10
8 11
8 12
8 13
8 65
8 66
8 67
9 10
9 11
9 12
9 13
9 97
9 101
10 11
10 12
10 13
10 23
10 34
11 12
11 13
11 41
11 42
12 13
12 24
13 22
13 33
13 64
13 84
13 91
14 15
14 16
14 25
15 16
15 44
15 100
16 41
16 99
17 18
17 59
17 80
17 89
18 78
19 20
19 21
19 29
20 21
20 28
20 60
21 30
21 65
21 97
22 23
22 24
22 33
22 64
22 84
22 91
23 24
23 34
25 99
25 100
26 27
26 93
26 94
27 95
27 98
28 29
28 30
28 60
29 30
30 65
30 97
31 32
31 33
31 34
31 40
32 33
32 34
32 39
32 43
32 44
32 45
33 34
33 64
33 84
33 91
35 36
35 54
35 82
36 42
36 53
36 79
36 101
37 38
37 39
37 74
38 39
38 75
38 103
39 43
39 44
39 45
40 43
40 74
40 75
41 42
41 99
42 53
42 79
42 101
43 44
43 45
43 74
43 75
44 45
44 100
45 103
46 58
46 89
46 90
47 48
47 49
47 83
48 49
48 68
48 69
48 70
49 76
49 77
50 51
50 52
50 71
51 52
51 67
51 73
52 66
52 72
52 88
53 54
53 55
53 79
53 101
54 55
54 82
55 81
55 96
55 102
56 57
56 58
56 78
56 79
56 80
56 81
56 82
57 58
57 59
58 89
58 90
59 80
59 89
60 69
60 76
60 83
60 102
61 62
61 86
61 88
62 63
62 64
62 86
62 88
63 64
63 87
64 84
64 91
65 66
65 67
65 97
66 67
66 72
66 88
67 73
68 69
68 70
68 77
69 70
69 76
69 83
69 102
70 96
71 72
71 73
72 73
72 88
74 75
75 103
76 77
76 83
76 102
78 79
78 80
78 81
78 82
79 80
79 81
79 82
79 101
80 81
80 82
80 89
81 82
81 96
81 102
83 102
84 85
84 86
84 87
84 91
85 86
85 87
85 92
86 87
86 88
89 90
90 93
90 95
91 92
93 94
93 95
94 98
95 98
96 102
97 101
99 100
